(set-logic QF_S)
(declare-fun var0 () String)
(declare-fun var1 () Int)
(declare-fun var2 () Bool)
(declare-fun var3 () String)
(declare-fun var4 () Int)
(declare-fun var5 () Bool)
(declare-fun var6 () String)
(declare-fun var7 () Int)
(declare-fun var8 () Bool)
(assert (< 4 9))
(assert (>= (str.len var6) (str.indexof var3 var0 var4)))
(assert (str.in.re (str.substr var6 var7 var1) (re.+ re.allchar)))
(assert (not (>= var7 var1)))
(check-sat)